(set-info :source |printed by MathSAT|)
(declare-fun |.x{1}| () Int)
(declare-fun |.x{275}| () Int)
(declare-fun |.x{19}| () (Array Int Int))
(declare-fun |.x{276}| () (Array Int Int))
(declare-fun |.x{3}| () (Array Int Int))
(declare-fun |.x{277}| () (Array Int Int))
(declare-fun |.x{4}| () (Array Int (Array Int Int)))
(declare-fun |.x{278}| () (Array Int (Array Int Int)))
(declare-fun |.x{5}| () (Array Int (Array Int Int)))
(declare-fun |.x{279}| () (Array Int (Array Int Int)))
(declare-fun |.x{23}| () Int)
(declare-fun |.x{280}| () Int)
(declare-fun |.x{7}| () Int)
(declare-fun |.x{281}| () Int)
(declare-fun |.x{8}| () (Array Int Int))
(declare-fun |.x{282}| () (Array Int Int))
(declare-fun |.x{9}| () (Array Int Int))
(declare-fun |.x{283}| () (Array Int Int))
(declare-fun |.x{27}| () Int)
(declare-fun |.x{284}| () Int)
(declare-fun |.x{11}| () Int)
(declare-fun |.x{285}| () Int)
(declare-fun |.x{12}| () Int)
(declare-fun |.x{286}| () Int)
(declare-fun |.x{13}| () Int)
(declare-fun |.x{287}| () Int)
(declare-fun |.x{14}| () Int)
(declare-fun |.x{288}| () Int)
(declare-fun |.x{15}| () Int)
(declare-fun |.x{289}| () Int)
(declare-fun |.x{16}| () Int)
(declare-fun |.x{290}| () Int)
(declare-fun |.x{17}| () Bool)
(declare-fun |.x{257}| () Bool)
(declare-fun |.loc{3}| () Bool)
(declare-fun |.loc{5}| () Bool)
(declare-fun |.loc{4}| () Bool)
(declare-fun |.loc{6}| () Bool)
(declare-fun |.x{67}| () (Array Int Int))
(define-fun .def_44 () Bool (! |.loc{4}| :next |.loc{6}|))
(define-fun .def_152 () Bool (not .def_44))
(define-fun .def_42 () Bool (! |.loc{3}| :next |.loc{5}|))
(define-fun .def_49 () Bool (not .def_42))
(define-fun .def_174 () Bool (and .def_49 .def_152))
(define-fun .def_40 () Bool (! |.x{17}| :next |.x{257}|))
(define-fun .def_168 () Bool (not .def_40))
(define-fun .def_16 () (Array Int (Array Int Int)) (! |.x{5}| :next |.x{279}|))
(define-fun .def_14 () (Array Int (Array Int Int)) (! |.x{4}| :next |.x{278}|))
(define-fun .def_167 () Bool (= .def_14 .def_16))
(define-fun .def_169 () Bool (and .def_167 .def_168))
(define-fun .def_28 () Int (! |.x{11}| :next |.x{285}|))
(define-fun .def_26 () Int (! |.x{27}| :next |.x{284}|))
(define-fun .def_166 () Bool (= .def_26 .def_28))
(define-fun .def_170 () Bool (and .def_166 .def_169))
(define-fun .def_20 () Int (! |.x{7}| :next |.x{281}|))
(define-fun .def_18 () Int (! |.x{23}| :next |.x{280}|))
(define-fun .def_165 () Bool (= .def_18 .def_20))
(define-fun .def_171 () Bool (and .def_165 .def_170))
(define-fun .def_24 () (Array Int Int) (! |.x{9}| :next |.x{283}|))
(define-fun .def_22 () (Array Int Int) (! |.x{8}| :next |.x{282}|))
(define-fun .def_164 () Bool (= .def_22 .def_24))
(define-fun .def_172 () Bool (and .def_164 .def_171))
(define-fun .def_12 () (Array Int Int) (! |.x{3}| :next |.x{277}|))
(define-fun .def_10 () (Array Int Int) (! |.x{19}| :next |.x{276}|))
(define-fun .def_163 () Bool (= .def_10 .def_12))
(define-fun .def_173 () Bool (and .def_163 .def_172))
(define-fun .def_175 () Bool (! (and .def_173 .def_174) :init true))
(define-fun .def_160 () Bool (= .def_16 |.x{279}|))
(define-fun .def_158 () Bool (= .def_12 |.x{277}|))
(define-fun .def_8 () Int (! |.x{1}| :next |.x{275}|))
(define-fun .def_156 () Bool (= .def_8 |.x{275}|))
(define-fun .def_154 () Bool (= .def_28 |.x{285}|))
(define-fun .def_150 () Bool (= .def_20 |.x{281}|))
(define-fun .def_149 () Bool (= .def_24 |.x{283}|))
(define-fun .def_151 () Bool (and .def_149 .def_150))
(define-fun .def_153 () Bool (and .def_151 .def_152))
(define-fun .def_155 () Bool (and .def_153 .def_154))
(define-fun .def_157 () Bool (and .def_155 .def_156))
(define-fun .def_159 () Bool (and .def_157 .def_158))
(define-fun .def_161 () Bool (and .def_159 .def_160))
(define-fun .def_144 () Bool (not |.loc{5}|))
(define-fun .def_145 () Bool (and |.loc{6}| .def_144))
(define-fun .def_47 () Bool (= |.x{289}| 4))
(define-fun .def_139 () Bool (not .def_47))
(define-fun .def_140 () Bool (or .def_40 .def_139))
(define-fun .def_87 () Int (select |.x{67}| |.x{290}|))
(define-fun .def_88 () Bool (= .def_87 0))
(define-fun .def_85 () Bool (= |.x{288}| 0))
(define-fun .def_82 () Bool (= |.x{290}| 0))
(define-fun .def_83 () Bool (not .def_82))
(define-fun .def_52 () Int (+ |.x{288}| 8))
(define-fun .def_77 () (Array Int Int) (select |.x{278}| |.x{290}|))
(define-fun .def_78 () Int (select .def_77 .def_52))
(define-fun .def_79 () Bool (= |.x{289}| .def_78))
(define-fun .def_74 () (Array Int Int) (store |.x{67}| |.x{290}| 1))
(define-fun .def_75 () Bool (= |.x{276}| .def_74))
(define-fun .def_70 () Bool (<= |.x{275}| |.x{290}|))
(define-fun .def_71 () Bool (not .def_70))
(define-fun .def_53 () (Array Int Int) (select .def_14 |.x{290}|))
(define-fun .def_68 () Int (select .def_53 |.x{288}|))
(define-fun .def_69 () Bool (= .def_68 1))
(define-fun .def_72 () Bool (and .def_69 .def_71))
(define-fun .def_76 () Bool (and .def_72 .def_75))
(define-fun .def_80 () Bool (and .def_76 .def_79))
(define-fun .def_84 () Bool (and .def_80 .def_83))
(define-fun .def_86 () Bool (and .def_84 .def_85))
(define-fun .def_89 () Bool (and .def_86 .def_88))
(define-fun .def_65 () Int (select .def_53 .def_52))
(define-fun .def_66 () Bool (= .def_65 3))
(define-fun .def_90 () Bool (and .def_66 .def_89))
(define-fun .def_62 () (Array Int Int) (store .def_22 |.x{290}| 12))
(define-fun .def_63 () Bool (= |.x{282}| .def_62))
(define-fun .def_91 () Bool (and .def_63 .def_90))
(define-fun .def_58 () Int (+ |.x{288}| 4))
(define-fun .def_59 () Int (select .def_53 .def_58))
(define-fun .def_60 () Bool (= .def_59 2))
(define-fun .def_92 () Bool (and .def_60 .def_91))
(define-fun .def_54 () (Array Int Int) (store .def_53 .def_52 4))
(define-fun .def_55 () (Array Int (Array Int Int)) (store .def_14 |.x{290}| .def_54))
(define-fun .def_56 () Bool (= |.x{278}| .def_55))
(define-fun .def_93 () Bool (and .def_56 .def_92))
(define-fun .def_137 () Bool (or .def_40 .def_93))
(define-fun .def_111 () Bool (and |.x{257}| .def_49))
(define-fun .def_135 () Bool (and |.x{257}| .def_111))
(define-fun .def_30 () Int (! |.x{12}| :next |.x{286}|))
(define-fun .def_97 () Bool (= .def_30 |.x{286}|))
(define-fun .def_136 () Bool (and .def_97 .def_135))
(define-fun .def_138 () Bool (and .def_136 .def_137))
(define-fun .def_141 () Bool (and .def_138 .def_140))
(define-fun .def_104 () (Array Int Int) (store .def_10 0 0))
(define-fun .def_105 () Bool (= |.x{67}| .def_104))
(define-fun .def_102 () Bool (= |.x{280}| 0))
(define-fun .def_101 () Bool (= |.x{284}| 0))
(define-fun .def_103 () Bool (and .def_101 .def_102))
(define-fun .def_106 () Bool (and .def_103 .def_105))
(define-fun .def_107 () Bool (or .def_40 .def_106))
(define-fun .def_142 () Bool (and .def_107 .def_141))
(define-fun .def_133 () Bool (= .def_26 |.x{284}|))
(define-fun .def_128 () Bool (= |.x{286}| |.x{287}|))
(define-fun .def_129 () Bool (or |.x{257}| .def_128))
(define-fun .def_38 () Int (! |.x{16}| :next |.x{290}|))
(define-fun .def_123 () (Array Int Int) (store .def_10 .def_38 0))
(define-fun .def_124 () Bool (= |.x{276}| .def_123))
(define-fun .def_122 () Bool (= |.x{287}| 0))
(define-fun .def_125 () Bool (and .def_122 .def_124))
(define-fun .def_126 () Bool (or .def_40 .def_125))
(define-fun .def_120 () Bool (= .def_14 |.x{278}|))
(define-fun .def_118 () Bool (= .def_22 |.x{282}|))
(define-fun .def_117 () Bool (= .def_18 |.x{280}|))
(define-fun .def_119 () Bool (and .def_117 .def_118))
(define-fun .def_121 () Bool (and .def_119 .def_120))
(define-fun .def_127 () Bool (and .def_121 .def_126))
(define-fun .def_130 () Bool (and .def_127 .def_129))
(define-fun .def_109 () Bool (= .def_40 |.x{257}|))
(define-fun .def_131 () Bool (and .def_109 .def_130))
(define-fun .def_132 () Bool (and .def_42 .def_131))
(define-fun .def_134 () Bool (and .def_132 .def_133))
(define-fun .def_143 () Bool (or .def_134 .def_142))
(define-fun .def_146 () Bool (and .def_143 .def_145))
(define-fun .def_112 () Bool (and |.loc{5}| .def_111))
(define-fun .def_113 () Bool (and .def_97 .def_112))
(define-fun .def_114 () Bool (and .def_40 .def_113))
(define-fun .def_99 () Bool (not |.loc{6}|))
(define-fun .def_115 () Bool (and .def_99 .def_114))
(define-fun .def_116 () Bool (and .def_107 .def_115))
(define-fun .def_147 () Bool (or .def_116 .def_146))
(define-fun .def_94 () Bool (or |.x{257}| .def_93))
(define-fun .def_48 () Bool (or |.x{257}| .def_47))
(define-fun .def_50 () Bool (and .def_48 .def_49))
(define-fun .def_95 () Bool (and .def_50 .def_94))
(define-fun .def_96 () Bool (and |.loc{5}| .def_95))
(define-fun .def_98 () Bool (and .def_96 .def_97))
(define-fun .def_100 () Bool (and .def_98 .def_99))
(define-fun .def_108 () Bool (and .def_100 .def_107))
(define-fun .def_110 () Bool (and .def_108 .def_109))
(define-fun .def_148 () Bool (or .def_110 .def_147))
(define-fun .def_162 () Bool (! (and .def_148 .def_161) :trans true))
(define-fun .def_32 () Int (! |.x{13}| :next |.x{287}|))
(define-fun .def_34 () Int (! |.x{14}| :next |.x{288}|))
(define-fun .def_36 () Int (! |.x{15}| :next |.x{289}|))
(define-fun .def_176 () Bool (and .def_44 .def_49))
(define-fun .def_177 () Bool (and .def_40 .def_176))
(define-fun .def_178 () Bool (! (not .def_177) :invar-property 0))
(assert true)
